<number of tasks>
50

<cycle time>
1000

<order strength>
0.198


<task times>
1 150
2 176
3 156
4 204
5 333
6 177
7 239
8 94
9 96
10 138
11 180
12 149
13 131
14 217
15 72
16 113
17 202
18 59
19 136
20 209
21 120
22 108
23 183
24 301
25 125
26 105
27 231
28 38
29 160
30 111
31 56
32 197
33 243
34 198
35 77
36 253
37 74
38 70
39 29
40 89
41 183
42 32
43 98
44 297
45 190
46 77
47 48
48 132
49 58
50 188

<precedence relations>
1,8
2,11
3,9
3,10
3,12
3,13
5,45
5,47
7,18
7,29
7,45
8,15
9,16
10,17
11,14
12,18
12,19
13,24
13,25
14,20
15,22
16,21
17,22
18,30
18,43
19,23
19,24
19,25
20,27
21,26
22,29
22,49
23,30
24,32
25,28
25,31
26,33
27,36
28,34
29,35
29,38
30,39
31,37
33,40
34,41
35,42
36,43
37,45
39,44
40,46
41,46
42,47
44,46
44,50
45,48
45,49

<end>
